
%FILE DATA:	Soccer Computational Problem for MiniZinc Models	%
%AUTHOR:	Jack Wall	%
%CONTACT:  	116397063@umail.ucc.ie			%
%LAST UPDATE:	03/19/2020, 18:19:11						%
%DESCRIPTION: 	224 games played with 16 games left				%


n=16; %number of teams

%Games to play
games=[|11,10|2,3|1,2|15,16|8,1|4,15|10,1|7,14|16,9|13,11|11,15|4,13|8,6|9,11|14,7|12,6|];

%Initial points
iPoints=[39,42,32,42,32,35,31,29,45,48,34,41,31,47,34,42];

%POSITION CONSTRAINTS
% [|teamID, operator, position|...]
% operators index:
%  1 for =  operator
%  2 for >  operator
%  3 for >= operator
%  4 for <  operator
%  5 for <= operator
positionConstraints=[|14,4,2|10,2,1|1,5,3|16,5,4|];